131 5
10 10 10 10 10 

0 0 0 0 0 0 1 2 
0 0 0 0 0 0 4 3 5 8 12 
1 0 0 0 0 1 4 11 7 6 4 
3 0 0 0 0 3 2 10 9 
2 0 0 0 0 1 1 6 
5 0 0 0 0 2 1 9 
1 0 0 0 0 1 1 9 
10 0 0 0 0 4 1 9 
2 0 0 0 0 3 1 13 
7 0 0 0 0 3 1 13 
7 0 0 0 0 5 1 13 
7 0 0 0 0 2 1 13 
0 0 0 0 0 0 2 14 26 
0 0 0 0 0 0 4 15 16 18 20 
4 0 0 0 0 1 2 19 17 
8 0 0 0 0 5 2 17 58 
10 0 0 0 0 4 4 24 23 22 21 
7 0 0 0 0 1 2 23 21 
1 0 0 0 0 3 1 21 
9 0 0 0 0 3 1 22 
10 0 0 0 0 2 1 25 
10 0 0 0 0 2 1 25 
6 0 0 0 0 3 1 25 
3 0 0 0 0 1 1 25 
0 0 0 0 0 0 5 48 60 72 84 96 
0 0 0 0 0 0 5 27 28 29 31 34 
10 0 0 1 0 1 4 40 37 35 30 
5 0 0 1 0 2 4 46 37 35 32 
5 0 0 2 0 2 5 45 40 37 35 33 
9 0 0 3 0 2 3 46 45 33 
6 0 0 2 0 4 3 45 35 33 
6 0 0 1 0 2 2 45 33 
4 0 0 5 0 2 4 43 39 38 36 
6 0 0 2 0 4 4 46 45 42 37 
6 0 0 3 0 3 3 43 38 36 
2 0 0 3 0 1 2 44 42 
4 0 0 1 0 1 2 43 41 
7 0 0 4 0 2 1 41 
10 0 0 1 0 3 1 41 
6 0 0 6 0 3 1 42 
2 0 0 1 0 2 1 47 
8 0 0 3 0 3 1 47 
4 0 0 3 0 2 1 47 
4 0 0 3 0 4 1 47 
6 0 0 3 0 3 2 47 67 
1 0 0 2 0 4 1 47 
0 0 0 0 0 0 1 108 
0 0 0 0 0 0 7 49 51 52 55 56 57 58 
3 0 0 0 1 0 2 53 50 
7 0 0 0 6 0 2 54 62 
5 0 0 0 6 0 1 53 
10 0 0 0 1 0 1 53 
4 0 0 0 3 0 1 59 
9 0 0 0 1 0 1 59 
7 0 0 0 1 0 1 59 
4 0 0 0 3 0 1 59 
6 0 0 0 2 0 1 59 
4 0 0 0 1 0 1 59 
0 0 0 0 0 0 1 108 
0 0 0 0 0 0 6 61 62 63 64 65 66 
3 1 0 0 0 0 2 70 67 
10 3 0 0 0 0 2 70 67 
6 2 0 0 0 0 2 70 67 
2 4 0 0 0 0 2 68 67 
8 4 0 0 0 0 2 70 69 
6 1 0 0 0 0 1 68 
9 3 0 0 0 0 1 69 
4 2 0 0 0 0 2 69 104 
10 1 0 0 0 0 1 71 
4 4 0 0 0 0 1 71 
0 0 0 0 0 0 1 108 
0 0 0 0 0 0 6 73 74 76 80 81 82 
8 0 0 0 1 0 2 78 75 
1 0 0 0 2 0 2 78 77 
8 0 0 0 2 0 1 79 
4 0 0 0 5 0 1 77 
7 0 0 0 2 0 1 83 
9 0 0 0 4 0 1 83 
10 0 0 0 1 0 1 83 
1 0 0 0 3 0 1 83 
3 0 0 0 3 0 1 83 
5 0 0 0 2 0 1 83 
0 0 0 0 0 0 1 108 
0 0 0 0 0 0 4 85 86 88 94 
2 0 0 0 0 1 4 93 90 89 87 
8 0 0 0 0 1 2 90 89 
9 0 0 0 0 3 1 91 
5 0 0 0 0 2 1 92 
1 0 0 0 0 2 1 95 
3 0 0 0 0 2 1 95 
6 0 0 0 0 2 1 95 
1 0 0 0 0 4 1 95 
9 0 0 0 0 3 1 95 
4 0 0 0 0 5 1 95 
0 0 0 0 0 0 1 108 
0 0 0 0 0 0 5 97 98 99 100 102 
5 0 0 0 0 1 4 106 105 104 101 
2 0 0 0 0 3 3 105 104 101 
7 0 0 0 0 2 2 104 101 
3 0 0 0 0 1 2 104 101 
8 0 0 0 0 3 1 103 
5 0 0 0 0 4 1 105 
8 0 0 0 0 1 1 107 
5 0 0 0 0 3 1 107 
2 0 0 0 0 3 1 107 
2 0 0 0 0 4 1 107 
0 0 0 0 0 0 1 108 
0 0 0 0 0 0 4 109 110 111 114 
7 0 1 0 0 0 4 118 117 116 112 
8 0 4 0 0 0 3 116 113 112 
6 0 2 0 0 0 3 118 116 115 
8 0 2 0 0 0 1 115 
1 0 4 0 0 0 1 115 
8 0 2 0 0 0 1 117 
2 0 3 0 0 0 1 119 
4 0 3 0 0 0 1 119 
4 0 1 0 0 0 1 119 
3 0 3 0 0 0 1 119 
0 0 0 0 0 0 1 120 
0 0 0 0 0 0 2 121 122 
3 0 0 1 0 0 3 125 124 123 
10 0 0 3 0 0 3 130 124 123 
2 0 0 5 0 0 4 129 128 127 126 
4 0 0 5 0 0 3 129 128 126 
9 0 0 2 0 0 3 130 127 126 
5 0 0 2 0 0 1 131 
6 0 0 1 0 0 1 131 
4 0 0 2 0 0 1 131 
6 0 0 1 0 0 1 131 
9 0 0 3 0 0 1 131 
0 0 0 0 0 0 0 
